c Random generated cnf formula, satisfiable: false
p cnf 10 50
-4 -3 -7 0
-8 -9 4 0
5 3 6 0
4 -9 -2 0
7 -10 3 0
9 -5 8 0
-9 -10 5 0
8 2 -1 0
7 1 4 0
-9 -3 -7 0
4 -1 -8 0
-4 -6 -5 0
9 -6 4 0
10 -2 -8 0
-6 10 -4 0
8 -2 1 0
-3 -9 -7 0
-9 -10 1 0
9 1 -2 0
8 5 -9 0
9 -8 7 0
9 6 -2 0
-8 5 9 0
5 8 10 0
-8 -5 3 0
-6 1 -10 0
1 2 -5 0
-10 -1 -4 0
10 6 4 0
-8 -5 -10 0
4 -8 6 0
-4 -7 6 0
-5 10 1 0
3 -10 -6 0
3 10 -7 0
9 -2 -8 0
7 2 -8 0
-3 6 7 0
6 -4 -7 0
2 8 6 0
-4 1 5 0
-7 9 -3 0
-6 -7 -3 0
-1 6 -5 0
9 3 -6 0
-2 9 7 0
2 9 1 0
8 -1 5 0
10 -3 -4 0
1 4 2 0
